l=736;
a=5;
setup_costs=[|1,1,1,1,1,
|1,1,1,1,1,
|1,1,1,1,1,
|1,1,1,1,1,
|1,1,1,1,1,
|0,0,0,0,0|];
setup_times=[|1,1,1,1,1,
|1,1,1,1,1,
|1,1,1,1,1,
|1,1,1,1,1,
|1,1,1,1,1,
|0,0,0,0,0|];
m=5;
min_cap=[0,0,0,0,0];
max_cap=[98,68,24,5,93];

initState=[4,2,2,5,1];
s=5;
m_a_s = [|0,0,0,0,121,
|0,0,0,296,309,
|0,0,0,0,405,
|358,433,517,525,598,
|0,0,0,0,392|];
m_a_e = [|0,0,0,0,666,
|0,0,0,306,703,
|0,0,0,0,649,
|427,494,523,582,703,
|0,0,0,0,507|];
n=25;
eligible_machine = [{2,1,3},
{1,2,3},
{4,1,3},
{4,3,5},
{1,2,3},
{3,1,4},
{1,2,3,4,5},
{4,1,3,5},
{2,1,5},
{3,1},
{1,3,5},
{4,1,3},
{3,1,2,5},
{3,1},
{1,2,3,5},
{5,1,2,3,4},
{2,3,4},
{1,3,5},
{4,1,2,3},
{3,2,5},
{1,3,4,5},
{3,4},
{5,1,2,3,4},
{3,5},
{4,2}];
earliest_start=[0,9,16,13,1,13,13,9,7,14,16,2,14,4,10,11,10,2,10,2,0,10,3,4,1];
latest_end=[19,18,26,28,4,21,16,21,8,23,23,13,26,5,13,18,16,13,27,9,15,22,11,7,15];
min_time=[10,5,9,10,2,5,2,8,1,5,7,7,8,1,2,7,5,10,9,7,9,8,7,2,9];
max_time=[10,10,10,10,10,10,10,10,10,10,10,10,10,10,10,10,10,10,10,10,10,10,10,10,10];
size=[3,1,1,1,2,1,2,2,1,1,4,1,2,2,1,2,3,5,3,1,4,3,1,5,3];
attribute=[3,5,3,5,5,4,5,4,2,5,5,3,1,1,4,3,5,1,5,3,1,5,5,2,2];

upper_bound_integer_objective=18375;
mult_factor_total_runtime=4;
mult_factor_finished_toolate=700;
mult_factor_total_setuptimes=0;
mult_factor_total_setupcosts=7;
running_time_bound=155;
min_duration=1;
max_duration=10;
max_setup_time=1;
max_setup_cost=1;
